Maximize
512 x1 + 256 x2 + 128 x3 + 64 x4 + 32 x5 + 16 x6 + 8 x7 + 4 x8 + 2 x9 + 1 x10  
Subject To
c1:  x1 <= 4
c2:  4 x1 + x2 <= 16
c3:  8 x1 + 4 x2 + x3 <= 64
c4:  16 x1 + 8 x2 + 4 x3 + x4 <= 256
c5:  32 x1 + 16 x2 + 8 x3 + 4 x4 + x5 <= 1024
c6:  64 x1 + 32 x2 + 16 x3 + 8 x4 + 4 x5 + x6 <= 4096
c7:  128 x1 + 64 x2 + 32 x3 + 16 x4 + 8 x5 + 4 x6 + x7 <= 16384
c8:  256 x1 + 128 x2 + 64 x3 + 32 x4 + 16 x5 + 8 x6 + 4 x7 + x8 <= 65536
c9:  512 x1 + 256 x2 + 128 x3 + 64 x4 + 32 x5 + 16 x6 + 8 x7 + 4 x8 + x9 <= 262144
c10:  1024 x1 + 512 x2 + 256 x3 + 128 x4 + 64 x5 + 32 x6 + 16 x7 + 8 x8 + 4 x9 + x10 <= 1048576
End

